\ This file has been generated by DOcplex
\ ENCODING=ISO-8859-1
\Problem name: mknap0

Maximize
 obj: 5 x_0 + 15 x_1
Subject To
 c1: 5 x_0 + 10 x_1 <= 5

Bounds
 0 <= x_0 <= 1
 0 <= x_1 <= 1

Binaries
 x_0 x_1
End
